num_offers = 30;
num_halls = 10;
start=[46,32,34,87,41,42,20,15,12,51,21,8,30,13,90,80,16,5,22,19,29,26,48,71,9,3,3,35,15,27];
end=[87,44,72,98,85,62,68,51,65,75,55,53,38,78,100,98,57,31,50,73,59,28,87,82,75,28,47,76,56,30];
price=[3886,366,1928,1091,3507,1133,493,1190,3529,1602,3022,2573,446,2424,196,944,2915,522,986,3601,1830,188,2720,1043,5953,1538,1608,1403,553,378];
requirement=[658,328,281,262,582,558,580,973,316,869,528,777,341,861,871,991,214,804,500,904,447,304,727,455,417,299,430,889,813,478];
capacity=[495,454,311,863,901,888,845,763,431,976];
